Problem:    
Rows:       163
Columns:    57 (42 integer, 42 binary)
Non-zeros:  620
Status:     INTEGER OPTIMAL
Objective:  value = 16.795 (MINimum)

   No.   Row name        Activity     Lower bound   Upper bound
------ ------------    ------------- ------------- -------------
     1 r.5                   1016.79             0               
     2 r.6                  -987.449      -994.965               
     3 r.7                    16.795             0               
     4 r.8                   12.5506      -986.372               
     5 r.9                   1016.79             0               
     6 r.10                 -992.485      -995.785               
     7 r.11                   16.795             0               
     8 r.12                  12.5506      -990.032               
     9 r.13                   16.795             0               
    10 r.14                 -994.682      -996.536               
    11 r.15                  1016.79             0               
    12 r.16                 -989.559      -991.829               
    13 r.17                  1016.79             0               
    14 r.18                   -996.7      -999.679               
    15 r.19                   16.795             0               
    16 r.20                 -996.694      -998.548               
    17 r.21                  1016.79             0               
    18 r.22                 -997.021      -998.875               
    19 r.23                   16.795             0               
    20 r.24                   7.5151      -994.388               
    21 r.25                  1016.79             0               
    22 r.26                 -999.142      -999.141               
    23 r.27                   16.795             0               
    24 r.28                 -996.122      -996.122               
    25 r.29                  1016.79             0               
    26 r.30                 -983.205      -995.756               
    27 r.31                   16.795             0               
    28 r.32                   16.795      -997.105               
    29 r.33                        1             1             = 
    30 r.34                        1             1             = 
    31 r.35                        1             1             = 
    32 r.36                        1             1             = 
    33 r.37                        1             1             = 
    34 r.38                        1             1             = 
    35 r.39                        1             1             = 
    36 r.40                        2             2               
    37 r.41                       -2         -1001               
    38 r.42                 -5.03546      -995.785               
    39 r.43                     1000             2               
    40 r.44                    -1000         -1001               
    41 r.45                     2000      -990.032               
    42 r.46                     1001             2               
    43 r.47                    -1001         -1001               
    44 r.48                  992.767      -996.536               
    45 r.49                     1001             2               
    46 r.50                    -1001         -1001               
    47 r.51                  1997.89      -991.829               
    48 r.52                 -990.749      -994.965               
    49 r.53                  9.25089      -986.372               
    50 r.54                  9.24482      -994.965               
    51 r.55                  1009.24      -986.372               
    52 r.56                 -990.428      -994.965               
    53 r.57                  9.57179      -986.372               
    54 r.58                 -994.965      -994.965               
    55 r.59                  5.03546      -986.372               
    56 r.60                 -995.756      -995.756               
    57 r.61                  4.24444      -997.105               
    58 r.62                 -995.756      -995.756               
    59 r.63                  4.24444      -997.105               
    60 r.64                        2             2               
    61 r.65                       -2         -1001               
    62 r.66                  5.03546       5.03546               
    63 r.67                     1000             2               
    64 r.68                    -1000         -1001               
    65 r.69                     2000       13.6277               
    66 r.70                     1001             2               
    67 r.71                    -1001         -1001               
    68 r.72                  997.803      -996.536               
    69 r.73                     1001             2               
    70 r.74                    -1001         -1001               
    71 r.75                  1997.89      -991.829               
    72 r.76                 -995.785      -995.785               
    73 r.77                  9.25089      -990.032               
    74 r.78                  4.20937      -995.785               
    75 r.79                  1009.24      -990.032               
    76 r.80                        2             2               
    77 r.81                       -2         -1001               
    78 r.82                 -4.53633      -998.875               
    79 r.83                     1000             2               
    80 r.84                    -1000         -1001               
    81 r.85                  1994.96      -994.388               
    82 r.86                 -994.339      -995.785               
    83 r.87                  10.6969      -990.032               
    84 r.88                   4.7892      -995.785               
    85 r.89                  1009.82      -990.032               
    86 r.90                  -990.72      -995.756               
    87 r.91                   9.2799      -997.105               
    88 r.92                 -995.756      -995.756               
    89 r.93                  4.24444      -997.105               
    90 r.94                     1001             2               
    91 r.95                    -1001         -1001               
    92 r.96                   3009.2       5.03546               
    93 r.97                     1001             2               
    94 r.98                    -1001         -1001               
    95 r.99                     2000       13.6277               
    96 r.100                    1001             2               
    97 r.101                   -1001         -1001               
    98 r.102                 3004.16       4.21543               
    99 r.103                    1001             2               
   100 r.104                   -1001         -1001               
   101 r.105                    2000       9.96791               
   102 r.106                    1001             2               
   103 r.107                   -1001         -1001               
   104 r.108                 2999.95      -999.679               
   105 r.109                    1001             2               
   106 r.110                   -1001         -1001               
   107 r.111                 990.755      -998.548               
   108 r.112                    1001             2               
   109 r.113                   -1001         -1001               
   110 r.114                 2999.63      -998.875               
   111 r.115                    1001             2               
   112 r.116                   -1001         -1001               
   113 r.117                 1994.96      -994.388               
   114 r.118                -996.536      -996.536               
   115 r.119                -991.413      -991.829               
   116 r.120                 2.59197      -996.536               
   117 r.121                 7.71499      -991.829               
   118 r.122                 13.4445      -995.756               
   119 r.123                 1013.44      -997.105               
   120 r.124                -995.756      -995.756               
   121 r.125                 4.24444      -997.105               
   122 r.126                    1001             2               
   123 r.127                   -1001         -1001               
   124 r.128                 1002.02       3.46426               
   125 r.129                    1001             2               
   126 r.130                   -1001         -1001               
   127 r.131                 3007.14       8.17108               
   128 r.132                       2             2               
   129 r.133                      -2         -1001               
   130 r.134               -0.320902      -998.875               
   131 r.135                    1000             2               
   132 r.136                   -1000         -1001               
   133 r.137                 3004.21      -994.388               
   134 r.138                -998.554      -999.679               
   135 r.139                -998.548      -998.548               
   136 r.140                 0.57377      -999.679               
   137 r.141                0.579838      -998.548               
   138 r.142                       2             2               
   139 r.143                      -2         -1001               
   140 r.144                 4.53633       4.21543               
   141 r.145                    1000             2               
   142 r.146                   -1000         -1001               
   143 r.147                 2005.04       9.96791               
   144 r.148                    1001             2               
   145 r.149                   -1001         -1001               
   146 r.150                 1002.34       3.46426               
   147 r.151                    1001             2               
   148 r.152                   -1001         -1001               
   149 r.153                 2002.93       8.17108               
   150 r.154                       2             2               
   151 r.155                      -2         -1001               
   152 r.156                  0.3209        0.3209               
   153 r.157                    1000             2               
   154 r.158                   -1000         -1001               
   155 r.159                 995.791       1.45213               
   156 r.160                -998.875      -998.875               
   157 r.161                 5.66149      -994.388               
   158 r.162                0.252869      -998.875               
   159 r.163                 1004.79      -994.388               
   160 r.164                -986.184      -995.756               
   161 r.165                 13.8162      -997.105               
   162 r.166                 -990.72      -995.756               
   163 r.167                  9.2799      -997.105               

   No. Column name       Activity     Lower bound   Upper bound
------ ------------    ------------- ------------- -------------
     1 tt                     16.795             0               
     2 s_1_1        *              1             0             1 
     3 t_1_1                 4.24444             0               
     4 s_1_7        *              1             0             1 
     5 s_2_1        *              0             0             1 
     6 t_2_1                 4.24444             0               
     7 s_2_7        *              0             0             1 
     8 s_1_2        *              1             0             1 
     9 t_1_2                  9.2799             0               
    10 s_2_2        *              0             0             1 
    11 t_2_2                 4.24444             0               
    12 s_1_3        *              0             0             1 
    13 t_1_3                 1013.44             0               
    14 s_2_3        *              1             0             1 
    15 t_2_3                 4.24444             0               
    16 s_1_4        *              1             0             1 
    17 t_1_4                 13.4953             0               
    18 s_2_4        *              0             0             1 
    19 t_2_4                 1013.49             0               
    20 s_1_5        *              1             0             1 
    21 t_1_5                 13.8162             0               
    22 s_2_5        *              0             0             1 
    23 t_2_5                  9.2799             0               
    24 s_1_6        *              1             0             1 
    25 t_1_6                 14.9414             0               
    26 s_2_6        *              0             0             1 
    27 t_2_6                 1014.07             0               
    28 t_1_7                       0             0               
    29 t_2_7                       0             0               
    30 r_1_1_2      *              0             0             1 
    31 u_1_1_2      *              0             0             1 
    32 r_2_1_2      *              1             0             1 
    33 u_2_1_2      *              0             0             1 
    34 r_1_1_3      *              1             0             1 
    35 u_1_1_3      *              0             0             1 
    36 r_2_1_3      *              1             0             1 
    37 u_2_1_3      *              0             0             1 
    38 r_1_2_3      *              1             0             1 
    39 u_1_2_3      *              0             0             1 
    40 r_2_2_3      *              1             0             1 
    41 u_2_2_3      *              0             0             1 
    42 r_1_2_5      *              0             0             1 
    43 u_1_2_5      *              0             0             1 
    44 r_2_2_5      *              1             0             1 
    45 u_2_2_5      *              0             0             1 
    46 r_1_3_4      *              1             0             1 
    47 u_1_3_4      *              0             0             1 
    48 r_2_3_4      *              1             0             1 
    49 u_2_3_4      *              0             0             1 
    50 r_1_3_5      *              1             0             1 
    51 u_1_3_5      *              0             0             1 
    52 r_2_3_5      *              1             0             1 
    53 u_2_3_5      *              0             0             1 
    54 r_1_4_5      *              0             0             1 
    55 u_1_4_5      *              0             0             1 
    56 r_2_4_5      *              1             0             1 
    57 u_2_4_5      *              0             0             1 

Integer feasibility conditions:

KKT.PE: max.abs.err = 4.55e-13 on row 92
        max.rel.err = 1.03e-16 on row 130
        High quality

KKT.PB: max.abs.err = 1.14e-13 on row 22
        max.rel.err = 1.14e-16 on row 22
        High quality

End of output
